*HEADING
sonda: un *DLOAD (GRAV) di un passo statico resta attivo nel passo successivo?
*NODE
1, 0.0, 0.0, 0.0
2, 10.0, 0.0, 0.0
3, 0.0, 10.0, 0.0
4, 0.0, 0.0, 10.0
*ELEMENT, TYPE=C3D4, ELSET=TUTTO
1, 1, 2, 3, 4
*NSET, NSET=BASSO
1, 2, 3
*NSET, NSET=ALTO
4
*SOLID SECTION, ELSET=TUTTO, MATERIAL=ACCIAIO
*MATERIAL, NAME=ACCIAIO
*ELASTIC
210000.0, 0.3
*DENSITY
7.85e-9
*BOUNDARY
BASSO, 1, 3
** PASSO 1: *DLOAD con GRAV verticale (peso) e GRAV orizzontale (spinta), come SPINTA_ORIZZONTALE.
*STEP
*STATIC
*DLOAD
TUTTO, GRAV, 100.0, 0.0, 0.0, -1.0
TUTTO, GRAV, 20.0, 1.0, 0.0, 0.0
*NODE PRINT, NSET=BASSO
RF
*NODE FILE
U
*END STEP
** PASSO 2: *DLOAD con la sola GRAV verticale, come CARICO_TOP dopo SPINTA_ORIZZONTALE.
** Nessun OP=NEW: il codice reale non lo scrive mai per *DLOAD.
*STEP
*STATIC
*DLOAD
TUTTO, GRAV, 100.0, 0.0, 0.0, -1.0
*NODE PRINT, NSET=BASSO
RF
*NODE FILE
U
*END STEP
** PASSO 3: *DLOAD, OP=NEW con la sola GRAV verticale: per contrasto, isola esplicitamente.
*STEP
*STATIC
*DLOAD, OP=NEW
TUTTO, GRAV, 100.0, 0.0, 0.0, -1.0
*NODE PRINT, NSET=BASSO
RF
*NODE FILE
U
*END STEP
